
Gurobi 13.0.1 (linux64) logging started Thu Mar 26 07:04:45 2026

Set parameter LogFile to value "logs_sparse/75B_3F_robust_gamma_0d5_theta_0d05199999999999999_2026-03-26_07h04m30s.log"
Set parameter MIPGap to value 0.005
Set parameter OptimalityTol to value 0.005
Gurobi Optimizer version 13.0.1 build v13.0.1rc0 (linux64 - "Linux Mint 22")

CPU model: 12th Gen Intel(R) Core(TM) i7-12700, instruction set [SSE2|AVX|AVX2]
Thread count: 20 physical cores, 20 logical processors, using up to 20 threads

Non-default parameters:
TimeLimit  3600
SoftMemLimit  12
MIPGap  0.005
OptimalityTol  0.005

Optimize a model with 45596 rows, 867096 columns and 2644377 nonzeros (Max)
Model fingerprint: 0x5373338c
Model has 832586 linear objective coefficients
Variable types: 12096 continuous, 855000 integer (855000 binary)
Coefficient statistics:
  Matrix range     [3e-05, 1e+05]
  Objective range  [1e+00, 3e+03]
  Bounds range     [1e+00, 1e+05]
  RHS range        [1e-02, 1e+05]

Presolve removed 23361 rows and 626499 columns
Presolve time: 1.52s
Presolved: 22235 rows, 240597 columns, 754072 nonzeros
Variable types: 5898 continuous, 234699 integer (234699 binary)
Found heuristic solution: objective -4.12338e+08
Deterministic concurrent LP optimizer: primal simplex, dual simplex, and barrier
Showing barrier log only...

Root barrier log...

Ordering time: 0.48s

Barrier statistics:
 AA' NZ     : 3.860e+05
 Factor NZ  : 3.362e+06 (roughly 130 MB of memory)
 Factor Ops : 9.985e+08 (less than 1 second per iteration)
 Threads    : 18

                  Objective                Residual
Iter       Primal          Dual         Primal    Dual     Compl     Time
   0  -8.72519143e+11  1.19653560e+09  2.53e+07 1.02e+03  1.06e+07     3s
   1  -9.31906057e+10  2.84196918e+09  2.71e+06 2.09e+02  1.16e+06     3s
   2  -2.21792482e+09  1.84157962e+09  6.50e+04 2.82e+01  3.13e+04     3s
   3   1.04328531e+08  1.38543069e+09  1.87e+03 3.26e+00  3.22e+03     3s
   4   2.40121768e+08  4.02915021e+08  4.74e+01 3.84e-01  3.42e+02     3s
   5   2.57875151e+08  2.98490660e+08  1.01e+01 7.71e-02  8.45e+01     3s
   6   2.61268245e+08  2.76015960e+08  2.98e+00 2.74e-02  3.04e+01     3s
   7   2.62218000e+08  2.67877207e+08  1.15e+00 9.89e-03  1.16e+01     3s
   8   2.62613463e+08  2.65945554e+08  4.63e-01 5.88e-03  6.81e+00     3s
   9   2.62841704e+08  2.63947401e+08  1.19e-01 1.60e-03  2.25e+00     3s
  10   2.62929133e+08  2.63505548e+08  3.35e-02 8.61e-04  1.17e+00     3s
  11   2.62976208e+08  2.63233202e+08  9.08e-03 3.84e-04  5.23e-01     3s
  12   2.62988983e+08  2.63126853e+08  4.59e-03 2.02e-04  2.80e-01     3s
  13   2.63000421e+08  2.63065244e+08  1.06e-03 9.42e-05  1.32e-01     3s
  14   2.63002124e+08  2.63041472e+08  6.43e-04 5.54e-05  8.00e-02     3s
  15   2.63003079e+08  2.63026605e+08  3.80e-04 3.19e-05  4.78e-02     4s
  16   2.63003648e+08  2.63018675e+08  2.58e-04 1.97e-05  3.06e-02     4s
  17   2.63004571e+08  2.63015143e+08  1.13e-04 1.43e-05  2.15e-02     4s
  18   2.63004699e+08  2.63012991e+08  8.62e-05 1.11e-05  1.69e-02     4s
  19   2.63004823e+08  2.63009988e+08  5.75e-05 6.65e-06  1.05e-02     4s
  20   2.63004997e+08  2.63008134e+08  3.69e-05 3.89e-06  6.38e-03     4s
  21   2.63005168e+08  2.63007423e+08  1.75e-05 2.86e-06  4.58e-03     4s
  22   2.63005192e+08  2.63006985e+08  1.48e-05 2.23e-06  3.65e-03     4s
  23   2.63005235e+08  2.63006430e+08  1.07e-05 1.45e-06  2.43e-03     4s
  24   2.63005275e+08  2.63006008e+08  7.46e-06 8.54e-07  1.49e-03     4s
  25   2.63005334e+08  2.63005878e+08  2.65e-06 6.79e-07  1.11e-03     4s
  26   2.63005351e+08  2.63005585e+08  1.11e-06 2.73e-07  4.77e-04     4s
  27   2.63005356e+08  2.63005524e+08  6.59e-07 1.92e-07  3.40e-04     4s
  28   2.63005363e+08  2.63005458e+08  2.15e-07 1.08e-07  1.92e-04     4s
  29   2.63005365e+08  2.63005398e+08  1.37e-07 3.06e-08  6.76e-05     4s
  30   2.63005366e+08  2.63005391e+08  5.85e-08 2.29e-08  4.97e-05     4s
  31   2.63005367e+08  2.63005377e+08  3.97e-08 7.86e-09  1.96e-05     4s
  32   2.63005368e+08  2.63005370e+08  1.74e-08 5.97e-10  3.43e-06     4s
  33   2.63005369e+08  2.63005369e+08  4.93e-09 1.81e-10  5.59e-07     4s
  34   2.63005369e+08  2.63005369e+08  1.22e-09 1.83e-10  1.37e-08     4s
  35   2.63005369e+08  2.63005369e+08  3.61e-09 2.19e-10  3.82e-12     5s

Barrier solved model in 35 iterations and 4.51 seconds (6.43 work units)
Optimal objective 2.63005369e+08

Crossover time: 0.34 seconds (0.30 work units)
Concurrent spin time: 1.06s (can be avoided by choosing Method=3)

Solved with barrier

Root simplex log...

Iteration    Objective       Primal Inf.    Dual Inf.      Time
   10065    2.6300537e+08   0.000000e+00   0.000000e+00      6s

Root relaxation: objective 2.630054e+08, 10065 iterations, 3.97 seconds (3.48 work units)

    Nodes    |    Current Node    |     Objective Bounds      |     Work
 Expl Unexpl |  Obj  Depth IntInf | Incumbent    BestBd   Gap | It/Node Time

     0     0 2.6301e+08    0 7377 -4.123e+08 2.6301e+08   164%     -    7s
H    0     0                    8.158932e+07 2.6301e+08   222%     -    7s
H    0     0                    1.012018e+08 2.6301e+08   160%     -    7s
H    0     0                    1.190438e+08 2.6301e+08   121%     -    7s
H    0     0                    1.259471e+08 2.6301e+08   109%     -    8s
H    0     0                    1.297684e+08 2.6301e+08   103%     -    8s
H    0     0                    1.326576e+08 2.6301e+08  98.3%     -    8s
H    0     0                    1.335627e+08 2.6301e+08  96.9%     -    9s
H    0     0                    1.353292e+08 2.6301e+08  94.3%     -    9s
H    0     0                    1.372911e+08 2.6301e+08  91.6%     -    9s
H    0     0                    1.381273e+08 2.6301e+08  90.4%     -    9s
H    0     0                    1.383599e+08 2.6301e+08  90.1%     -   10s
H    0     0                    2.230296e+08 2.6301e+08  17.9%     -   11s
H    0     0                    2.231820e+08 2.6301e+08  17.8%     -   12s
     0     0 2.6300e+08    0 6323 2.2318e+08 2.6300e+08  17.8%     -  262s
H    0     0                    2.234050e+08 2.6300e+08  17.7%     -  282s
H    0     0                    2.234093e+08 2.6300e+08  17.7%     -  304s
     0     0 2.6300e+08    0 6452 2.2341e+08 2.6300e+08  17.7%     -  573s
     0     0 2.6300e+08    0 7272 2.2341e+08 2.6300e+08  17.7%     -  844s
H    0     0                    2.282510e+08 2.6300e+08  15.2%     -  847s
H    0     0                    2.304411e+08 2.6300e+08  14.1%     -  853s
H    0     0                    2.344974e+08 2.6300e+08  12.2%     -  875s
H    0     0                    2.347273e+08 2.6300e+08  12.0%     -  912s
H    0     0                    2.347285e+08 2.6300e+08  12.0%     -  955s
H    0     0                    2.347301e+08 2.6300e+08  12.0%     -  961s
H    0     0                    2.347307e+08 2.6300e+08  12.0%     -  961s
H    0     0                    2.353266e+08 2.6300e+08  11.8%     -  961s
H    0     0                    2.354783e+08 2.6300e+08  11.7%     -  967s
H    0     0                    2.358144e+08 2.6300e+08  11.5%     -  967s
H    0     0                    2.359167e+08 2.6300e+08  11.5%     -  967s
H    0     0                    2.359218e+08 2.6300e+08  11.5%     - 1046s
H    0     0                    2.359224e+08 2.6300e+08  11.5%     - 1046s
H    0     0                    2.359720e+08 2.6300e+08  11.5%     - 1046s
     0     0 2.6300e+08    0 7007 2.3597e+08 2.6300e+08  11.5%     - 1094s
     0     0 2.6300e+08    0 7393 2.3597e+08 2.6300e+08  11.5%     - 1466s
     0     0 2.6300e+08    0 7173 2.3597e+08 2.6300e+08  11.5%     - 1551s
     0     0 2.6300e+08    0 7408 2.3597e+08 2.6300e+08  11.5%     - 1813s
     0     0 2.6300e+08    0 7408 2.3597e+08 2.6300e+08  11.5%     - 1815s
     0     0 2.6300e+08    0 7381 2.3597e+08 2.6300e+08  11.5%     - 1815s
H    0     0                    2.359729e+08 2.6300e+08  11.5%     - 2049s
H    0     0                    2.359732e+08 2.6300e+08  11.5%     - 2106s
     0     2 2.6300e+08    0 7381 2.3597e+08 2.6300e+08  11.5%     - 2230s
     1     3 2.6300e+08    1 5462 2.3597e+08 2.6300e+08  11.5% 153065 2446s
     2     4 2.6300e+08    1 7462 2.3597e+08 2.6300e+08  11.5% 197365 2670s
     3     5 2.6300e+08    2 5687 2.3597e+08 2.6300e+08  11.5% 190060 2812s
     4     7 2.6300e+08    3 5738 2.3597e+08 2.6300e+08  11.5% 150074 2999s
     6    13 2.6300e+08    3 5779 2.3597e+08 2.6300e+08  11.5% 139318 3409s
H    9    13                    2.360534e+08 2.6300e+08  11.4% 101071 3409s

Cutting planes:
  MIR: 9
  Flow cover: 89
  RLT: 3218
  Relax-and-lift: 105

Explored 12 nodes (2528272 simplex iterations) in 3600.08 seconds (6288.04 work units)
Thread count was 20 (of 20 available processors)

Solution count 10: 2.36053e+08 2.35973e+08 2.35973e+08 ... 2.35327e+08

Time limit reached
Best objective 2.360534277489e+08, best bound 2.630035320354e+08, gap 11.4170%
